(set-option :produce-assignments true)
(set-logic QF_UF)
(declare-const p Bool) 
(declare-const q Bool) 
(declare-const r Bool) 
(declare-const t Bool)
(declare-const z1 Bool)
(assert (and 
(or r p t) 
(or (not q) (not r) t) 
(or (not p) (not q) z1) 
(or (not p) (not q) (not z1)) 
(or p r (not q)) 
))
(check-sat)
(get-model)
(exit)